; Options: -in -smt2
(set-option :produce-unsat-assumptions true)

(declare-fun start!1137 () Bool)

(assert start!1137)

(declare-fun res!4174 () Bool)

(declare-fun e!2729 () Bool)

(assert (=> start!1137 (=> (not res!4174) (not e!2729))))

(declare-fun jz!67 () (_ BitVec 32))

(declare-datatypes ((array!413 0))(
  ( (array!414 (arr!181 (Array (_ BitVec 32) (_ FloatingPoint 11 53))) (size!181 (_ BitVec 32))) )
))
(declare-fun qq!69 () array!413)

(assert (=> start!1137 (= res!4174 (and (bvsle #b00000000000000000000000000000000 jz!67) (bvslt jz!67 #b00000000000000000000000000010100) (= (size!181 qq!69) #b00000000000000000000000000010100)))))

(assert (=> start!1137 e!2729))

(assert (=> start!1137 true))

(declare-fun array_inv!131 (array!413) Bool)

(assert (=> start!1137 (array_inv!131 qq!69)))

(declare-fun b!5301 () Bool)

(declare-fun res!4175 () Bool)

(assert (=> b!5301 (=> (not res!4175) (not e!2729))))

(declare-fun qqInv!0 (array!413) Bool)

(assert (=> b!5301 (= res!4175 (qqInv!0 qq!69))))

(declare-fun b!5302 () Bool)

(assert (=> b!5302 (= e!2729 (and (fp.leq (fp #b0 #b00000000000 #b0000000000000000000000000000000000000000000000000000) (select (store ((as const (Array (_ BitVec 32) (_ FloatingPoint 11 53))) (fp #b0 #b00000000000 #b0000000000000000000000000000000000000000000000000000)) #b00000000000000000000000000000000 (fp.mul roundNearestTiesToEven (fp #b0 #b01111111111 #b1001001000011111101101000000000000000000000000000000) (select (arr!181 qq!69) #b00000000000000000000000000000000))) #b00000000000000000000000000000000)) (fp.leq (select (store ((as const (Array (_ BitVec 32) (_ FloatingPoint 11 53))) (fp #b0 #b00000000000 #b0000000000000000000000000000000000000000000000000000)) #b00000000000000000000000000000000 (fp.mul roundNearestTiesToEven (fp #b0 #b01111111111 #b1001001000011111101101000000000000000000000000000000) (select (arr!181 qq!69) #b00000000000000000000000000000000))) #b00000000000000000000000000000000) (fp #b0 #b01111111110 #b1001001000011111101100001101101111000000100110000000)) (fp.leq (fp #b0 #b00000000000 #b0000000000000000000000000000000000000000000000000000) (select (store (store ((as const (Array (_ BitVec 32) (_ FloatingPoint 11 53))) (fp #b0 #b00000000000 #b0000000000000000000000000000000000000000000000000000)) #b00000000000000000000000000000000 (fp.mul roundNearestTiesToEven (fp #b0 #b01111111111 #b1001001000011111101101000000000000000000000000000000) (select (arr!181 qq!69) #b00000000000000000000000000000000))) #b00000000000000000000000000000001 (fp.add roundNearestTiesToEven (fp.mul roundNearestTiesToEven (fp #b0 #b01111111111 #b1001001000011111101101000000000000000000000000000000) (select (arr!181 qq!69) #b00000000000000000000000000000001)) (fp.mul roundNearestTiesToEven (fp #b0 #b01111100111 #b0100010001000010110100000000000000000000000000000000) (select (arr!181 qq!69) #b00000000000000000000000000000000)))) #b00000000000000000000000000000001)) (fp.leq (select (store (store ((as const (Array (_ BitVec 32) (_ FloatingPoint 11 53))) (fp #b0 #b00000000000 #b0000000000000000000000000000000000000000000000000000)) #b00000000000000000000000000000000 (fp.mul roundNearestTiesToEven (fp #b0 #b01111111111 #b1001001000011111101101000000000000000000000000000000) (select (arr!181 qq!69) #b00000000000000000000000000000000))) #b00000000000000000000000000000001 (fp.add roundNearestTiesToEven (fp.mul roundNearestTiesToEven (fp #b0 #b01111111111 #b1001001000011111101101000000000000000000000000000000) (select (arr!181 qq!69) #b00000000000000000000000000000001)) (fp.mul roundNearestTiesToEven (fp #b0 #b01111100111 #b0100010001000010110100000000000000000000000000000000) (select (arr!181 qq!69) #b00000000000000000000000000000000)))) #b00000000000000000000000000000001) (fp #b0 #b01111101000 #b0001101000100000100011001001010011001110101111100000)) (fp.leq (fp #b0 #b00000000000 #b0000000000000000000000000000000000000000000000000000) (select (store (store (store ((as const (Array (_ BitVec 32) (_ FloatingPoint 11 53))) (fp #b0 #b00000000000 #b0000000000000000000000000000000000000000000000000000)) #b00000000000000000000000000000000 (fp.mul roundNearestTiesToEven (fp #b0 #b01111111111 #b1001001000011111101101000000000000000000000000000000) (select (arr!181 qq!69) #b00000000000000000000000000000000))) #b00000000000000000000000000000001 (fp.add roundNearestTiesToEven (fp.mul roundNearestTiesToEven (fp #b0 #b01111111111 #b1001001000011111101101000000000000000000000000000000) (select (arr!181 qq!69) #b00000000000000000000000000000001)) (fp.mul roundNearestTiesToEven (fp #b0 #b01111100111 #b0100010001000010110100000000000000000000000000000000) (select (arr!181 qq!69) #b00000000000000000000000000000000)))) #b00000000000000000000000000000010 (fp.add roundNearestTiesToEven (fp.add roundNearestTiesToEven (fp.mul roundNearestTiesToEven (fp #b0 #b01111111111 #b1001001000011111101101000000000000000000000000000000) (select (arr!181 qq!69) #b00000000000000000000000000000010)) (fp.mul roundNearestTiesToEven (fp #b0 #b01111100111 #b0100010001000010110100000000000000000000000000000000) (select (arr!181 qq!69) #b00000000000000000000000000000001))) (fp.mul roundNearestTiesToEven (fp #b0 #b01111001111 #b1000010001101001100010000000000000000000000000000000) (select (arr!181 qq!69) #b00000000000000000000000000000000)))) #b00000000000000000000000000000010)) (fp.leq (select (store (store (store ((as const (Array (_ BitVec 32) (_ FloatingPoint 11 53))) (fp #b0 #b00000000000 #b0000000000000000000000000000000000000000000000000000)) #b00000000000000000000000000000000 (fp.mul roundNearestTiesToEven (fp #b0 #b01111111111 #b1001001000011111101101000000000000000000000000000000) (select (arr!181 qq!69) #b00000000000000000000000000000000))) #b00000000000000000000000000000001 (fp.add roundNearestTiesToEven (fp.mul roundNearestTiesToEven (fp #b0 #b01111111111 #b1001001000011111101101000000000000000000000000000000) (select (arr!181 qq!69) #b00000000000000000000000000000001)) (fp.mul roundNearestTiesToEven (fp #b0 #b01111100111 #b0100010001000010110100000000000000000000000000000000) (select (arr!181 qq!69) #b00000000000000000000000000000000)))) #b00000000000000000000000000000010 (fp.add roundNearestTiesToEven (fp.add roundNearestTiesToEven (fp.mul roundNearestTiesToEven (fp #b0 #b01111111111 #b1001001000011111101101000000000000000000000000000000) (select (arr!181 qq!69) #b00000000000000000000000000000010)) (fp.mul roundNearestTiesToEven (fp #b0 #b01111100111 #b0100010001000010110100000000000000000000000000000000) (select (arr!181 qq!69) #b00000000000000000000000000000001))) (fp.mul roundNearestTiesToEven (fp #b0 #b01111001111 #b1000010001101001100010000000000000000000000000000000) (select (arr!181 qq!69) #b00000000000000000000000000000000)))) #b00000000000000000000000000000010) (fp #b0 #b01111010000 #b1100110001001011101000011101001010011001111110100000)) (bvsge #b00000000000000000000000000000010 (size!181 qq!69))))))

(assert (= (and start!1137 res!4174) b!5301))

(assert (= (and b!5301 res!4175) b!5302))

(declare-fun m!8193 () Bool)

(assert (=> start!1137 m!8193))

(declare-fun m!8195 () Bool)

(assert (=> b!5301 m!8195))

(declare-fun m!8197 () Bool)

(assert (=> b!5302 m!8197))

(declare-fun m!8199 () Bool)

(assert (=> b!5302 m!8199))

(declare-fun m!8201 () Bool)

(assert (=> b!5302 m!8201))

(declare-fun m!8203 () Bool)

(assert (=> b!5302 m!8203))

(declare-fun m!8205 () Bool)

(assert (=> b!5302 m!8205))

(declare-fun m!8207 () Bool)

(assert (=> b!5302 m!8207))

(declare-fun m!8209 () Bool)

(assert (=> b!5302 m!8209))

(declare-fun m!8211 () Bool)

(assert (=> b!5302 m!8211))

(declare-fun m!8213 () Bool)

(assert (=> b!5302 m!8213))

(check-sat (not start!1137) (not b!5301))
(check-sat)
